NAME : XML100_2264_25
DIMENSION : 101
NB_CLUSTERS : 30
CLUSTERING_ALG : DBSCAN
CLUSTERING_PARAMS : eps(16), minSamples(3)
CLUSTERS
1 0
2 2 23 32 70 73 74 82 85
3 14 19 37 42 77 87
4 5 25 29 38 41 48 63 81
5 1 27 31 35 64 76
6 17 24 75 100
7 10 46 62 66 92
8 34 39 45
9 57 84
10 3 26 51 69 79
11 7 8
12 22 59 65
13 21 96
14 60 61
15 11 12 18 36 49
16 47 80
17 40 67
18 52 86 95
19 30 71 93
20 33 44 68
21 28 89
22 53 91
23 20 88
24 58 72 97
25 13 56
26 6 55
27 4 43 94 99
28 9 16 50 83
29 54 78 90
30 15 98
EOF